1
963 509 738  401
10
464 61 355  38 254
610 82 35  50 209
798 707 691  230 120
563 33 299  228 177
759 548 762  8 47
604 381 629  184 269
706 362 746  267 207
169 48 255  109 135
714 281 172  101 207
467 379 26  25 168
